\ This file has been generated by DOcplex
\ ENCODING=ISO-8859-1
\Problem name: dectiger problem

Maximize
 obj: [ 15.429146750881 a0_u0*a1_u0_x0 - 89.324871018249 a0_u0*a1_u1_x0
      + 20.675128981751 a0_u0*a1_u2_x0 - 2.611406250000 a0_u0*a1_u0_x1
      + 90 a0_u0*a1_u1_x1 - 20 a0_u0*a1_u2_x1 - 89.324871018249 a0_u1*a1_u0_x0
      - 38.324871018249 a0_u1*a1_u1_x0 - 88.324871018249 a0_u1*a1_u2_x0
      + 90 a0_u1*a1_u0_x1 + 101 a0_u1*a1_u1_x1 - 19 a0_u1*a1_u2_x1
      + 20.675128981751 a0_u2*a1_u0_x0 - 88.324871018249 a0_u2*a1_u1_x0
      + 31.675128981751 a0_u2*a1_u2_x0 - 20 a0_u2*a1_u0_x1 - 19 a0_u2*a1_u1_x1
      + 31 a0_u2*a1_u2_x1 ]/2
Subject To
 c1: - 20 aj_u0_x0 - 98 aj_u1_x0 - 66 aj_u2_x0 - 73 aj_u3_x0 - 7 aj_u4_x0
     - 15 aj_u5_x0 + 13 aj_u6_x0 - 90 aj_u7_x0 - 47 aj_u8_x0 + 20 a0_u0
     + 73 a0_u1 - 13 a0_u2 >= 0
 c2: - 20 aj_u0_x0 - 98 aj_u1_x0 - 66 aj_u2_x0 - 73 aj_u3_x0 - 7 aj_u4_x0
     - 15 aj_u5_x0 + 13 aj_u6_x0 - 90 aj_u7_x0 - 47 aj_u8_x0 + 98 a0_u0
     + 7 a0_u1 + 90 a0_u2 >= 0
 c3: - 20 aj_u0_x0 - 98 aj_u1_x0 - 66 aj_u2_x0 - 73 aj_u3_x0 - 7 aj_u4_x0
     - 15 aj_u5_x0 + 13 aj_u6_x0 - 90 aj_u7_x0 - 47 aj_u8_x0 + 66 a0_u0
     + 15 a0_u1 + 47 a0_u2 >= 0
 c4: - 87 aj_u0_x1 - 7 aj_u1_x1 - 70 aj_u2_x1 - 84 aj_u3_x1 - 88 aj_u4_x1
     - 7 aj_u5_x1 - 32 aj_u6_x1 - 26 aj_u7_x1 - 97 aj_u8_x1 + 87 a0_u0
     + 84 a0_u1 + 32 a0_u2 >= 0
 c5: - 87 aj_u0_x1 - 7 aj_u1_x1 - 70 aj_u2_x1 - 84 aj_u3_x1 - 88 aj_u4_x1
     - 7 aj_u5_x1 - 32 aj_u6_x1 - 26 aj_u7_x1 - 97 aj_u8_x1 + 7 a0_u0 + 88 a0_u1
     + 26 a0_u2 >= 0
 c6: - 87 aj_u0_x1 - 7 aj_u1_x1 - 70 aj_u2_x1 - 84 aj_u3_x1 - 88 aj_u4_x1
     - 7 aj_u5_x1 - 32 aj_u6_x1 - 26 aj_u7_x1 - 97 aj_u8_x1 + 70 a0_u0 + 7 a0_u1
     + 97 a0_u2 >= 0
 c7: a0_u0 + a0_u1 + a0_u2 = 1
 c8: a1_u0_x0 + a1_u1_x0 + a1_u2_x0 = 1
 c9: aj_u0_x0 + aj_u1_x0 + aj_u2_x0 + aj_u3_x0 + aj_u4_x0 + aj_u5_x0 + aj_u6_x0
     + aj_u7_x0 + aj_u8_x0 = 1
 c10: a1_u0_x1 + a1_u1_x1 + a1_u2_x1 = 1
 c11: aj_u0_x1 + aj_u1_x1 + aj_u2_x1 + aj_u3_x1 + aj_u4_x1 + aj_u5_x1 + aj_u6_x1
      + aj_u7_x1 + aj_u8_x1 = 1
 c12: aj_u0_x0 + aj_u1_x0 + aj_u2_x0 - a0_u0 = 0
 c13: aj_u3_x0 + aj_u4_x0 + aj_u5_x0 - a0_u1 = 0
 c14: aj_u6_x0 + aj_u7_x0 + aj_u8_x0 - a0_u2 = 0
 c15: aj_u0_x1 + aj_u1_x1 + aj_u2_x1 - a0_u0 = 0
 c16: aj_u3_x1 + aj_u4_x1 + aj_u5_x1 - a0_u1 = 0
 c17: aj_u6_x1 + aj_u7_x1 + aj_u8_x1 - a0_u2 = 0
 c18: aj_u0_x0 + aj_u3_x0 + aj_u6_x0 - a1_u0_x0 = 0
 c19: aj_u1_x0 + aj_u4_x0 + aj_u7_x0 - a1_u1_x0 = 0
 c20: aj_u2_x0 + aj_u5_x0 + aj_u8_x0 - a1_u2_x0 = 0
 c21: aj_u0_x1 + aj_u3_x1 + aj_u6_x1 - a1_u0_x1 = 0
 c22: aj_u1_x1 + aj_u4_x1 + aj_u7_x1 - a1_u1_x1 = 0
 c23: aj_u2_x1 + aj_u5_x1 + aj_u8_x1 - a1_u2_x1 = 0

Bounds
       a0_u0 <= 1
       a0_u1 <= 1
       a0_u2 <= 1
 0 <= a1_u0_x0 <= 1
 0 <= a1_u1_x0 <= 1
 0 <= a1_u2_x0 <= 1
       aj_u0_x0 <= 1
       aj_u1_x0 <= 1
       aj_u2_x0 <= 1
       aj_u3_x0 <= 1
       aj_u4_x0 <= 1
       aj_u5_x0 <= 1
       aj_u6_x0 <= 1
       aj_u7_x0 <= 1
       aj_u8_x0 <= 1
 0 <= a1_u0_x1 <= 1
 0 <= a1_u1_x1 <= 1
 0 <= a1_u2_x1 <= 1
       aj_u0_x1 <= 1
       aj_u1_x1 <= 1
       aj_u2_x1 <= 1
       aj_u3_x1 <= 1
       aj_u4_x1 <= 1
       aj_u5_x1 <= 1
       aj_u6_x1 <= 1
       aj_u7_x1 <= 1
       aj_u8_x1 <= 1

Binaries
 a1_u0_x0 a1_u1_x0 a1_u2_x0 a1_u0_x1 a1_u1_x1 a1_u2_x1
End
